     Program PWSCF v.7.2 starts on 23Jan2025 at 14:16:38

     Reading input from scf.in

     Current dimensions of program PWSCF are:
     Max number of different atomic species (ntypx) = 10
     Max number of k-points (npk) =  40000
     Max angular momentum in pseudopotentials (lmaxx) =  4
     Message from routine setup:
     using ibrav=0 with symmetry is DISCOURAGED, use correct ibrav instead

     K-points division:     npool     =       2
     R & G space division:  proc/nbgrp/npool/nimage =      64
     Subspace diagonalization in iterative solution of the eigenvalue problem:
     a serial algorithm will be used

     Using Slab Decomposition

     bravais-lattice index     =            0
     lattice parameter (alat)  =       4.7319  a.u.
     unit-cell volume          =     732.8682 (a.u.)^3
     number of atoms/cell      =            2
     number of atomic types    =            2
     number of electrons       =         8.00
     number of Kohn-Sham states=            4
     kinetic-energy cutoff     =      70.0000  Ry
     charge density cutoff     =     280.0000  Ry
     scf convergence threshold =      1.0E-10
     mixing beta               =       0.7000
     number of iterations used =            8  plain     mixing
     Exchange-correlation= PZ
                           (   1   1   0   0   0   0   0)

     celldm(1)=   4.731874  celldm(2)=   0.000000  celldm(3)=   0.000000
     celldm(4)=   0.000000  celldm(5)=   0.000000  celldm(6)=   0.000000

     crystal axes: (cart. coord. in units of alat)
               a(1) = (   1.000000   0.000000   0.000000 )
               a(2) = (  -0.500000   0.866025   0.000000 )
               a(3) = (   0.000000   0.000000   7.987220 )

     reciprocal axes: (cart. coord. in units 2 pi/alat)
               b(1) = (  1.000000  0.577350 -0.000000 )
               b(2) = (  0.000000  1.154701  0.000000 )
               b(3) = (  0.000000 -0.000000  0.125200 )

     PseudoPot. # 1 for B  read from file:
     ./B_LDA.upf
     MD5 check sum: 65253fcade13fd046065f55d2370c246
     Pseudo is Norm-conserving, Zval =  3.0
     Generated using ONCVPSP code by D. R. Hamann
     Using radial grid of 1498 points,  4 beta functions with:
                l(1) =   0
                l(2) =   0
                l(3) =   1
                l(4) =   1

     PseudoPot. # 2 for N  read from file:
     ./N_LDA.upf
     MD5 check sum: 7658f7615a25ff704775af13f841a702
     Pseudo is Norm-conserving, Zval =  5.0
     Generated using ONCVPSP code by D. R. Hamann
     Using radial grid of 1058 points,  4 beta functions with:
                l(1) =   0
                l(2) =   0
                l(3) =   1
                l(4) =   1

     atomic species   valence    mass     pseudopotential
        B              3.00    11.00000     B ( 1.00)
        N              5.00    14.00000     N ( 1.00)

     12 Sym. Ops. (no inversion) found

                                    s                        frac. trans.

      isym =  1     identity

 cryst.   s( 1) = (     1          0          0      )
                  (     0          1          0      )
                  (     0          0          1      )

 cart.    s( 1) = (  1.0000000  0.0000000  0.0000000 )
                  (  0.0000000  1.0000000  0.0000000 )
                  (  0.0000000  0.0000000  1.0000000 )

      isym =  2     180 deg rotation - cart. axis [0,1,0]

[...]

      isym =  3     120 deg rotation - cryst. axis [0,0,1]

[...]

      isym =  6     180 deg rotation - cryst. axis [2,1,0]

[...]

      isym =  7     inv. 180 deg rotation - cart. axis [0,0,1]

[...]

      isym =  8     inv. 180 deg rotation - cart. axis [1,0,0]

[...]

      isym =  9     inv.  60 deg rotation - cryst. axis [0,0,1]

 cryst.   s( 9) = (    -1         -1          0      )
                  (     1          0          0      )
                  (     0          0         -1      )

 cart.    s( 9) = ( -0.5000000  0.8660254  0.0000000 )
                  ( -0.8660254 -0.5000000  0.0000000 )
                  (  0.0000000  0.0000000 -1.0000000 )

[...]

 cryst.   s(10) = (     0          1          0      )
                  (    -1         -1          0      )
                  (     0          0         -1      )

 cart.    s(10) = ( -0.5000000 -0.8660254  0.0000000 )
                  (  0.8660254 -0.5000000  0.0000000 )
                  (  0.0000000  0.0000000 -1.0000000 )

[...]

      isym = 12     inv. 180 deg rotation - cryst. axis [1,1,0]

 cryst.   s(12) = (     0         -1          0      )
                  (    -1          0          0      )
                  (     0          0          1      )

 cart.    s(12) = (  0.5000000 -0.8660254  0.0000000 )
                  ( -0.8660254 -0.5000000  0.0000000 )
                  (  0.0000000  0.0000000  1.0000000 )

   Cartesian axes

     site n.     atom                  positions (alat units)
         1           N   tau(   1) = (  -0.0000000   0.5773503   3.9936102  )
         2           B   tau(   2) = (   0.5000000   0.2886751   3.9936102  )

   Crystallographic axes

     site n.     atom                  positions (cryst. coord.)
         1           N   tau(   1) = (  0.3333333  0.6666667  0.5000000  )
         2           B   tau(   2) = (  0.6666667  0.3333333  0.5000000  )

     number of k points=   156
                       cart. coord. in units 2pi/alat
        k(    1) = (   0.0208333   0.0360844   0.0000000), wk =   0.0069444
        k(    2) = (   0.0208333   0.0841969   0.0000000), wk =   0.0138889
        k(    3) = (   0.0208333   0.1323094   0.0000000), wk =   0.0138889
        k(    4) = (   0.0208333   0.1804220   0.0000000), wk =   0.0138889
        k(    5) = (   0.0208333   0.2285345   0.0000000), wk =   0.0138889
        k(    6) = (   0.0208333   0.2766470   0.0000000), wk =   0.0138889
        k(    7) = (   0.0208333   0.3247595   0.0000000), wk =   0.0138889
        k(    8) = (   0.0208333   0.3728720   0.0000000), wk =   0.0138889
        k(    9) = (   0.0208333   0.4209846   0.0000000), wk =   0.0138889
        k(   10) = (   0.0208333   0.4690971   0.0000000), wk =   0.0138889
        k(   11) = (   0.0208333   0.5172096   0.0000000), wk =   0.0138889
        k(   12) = (   0.0208333   0.5653221   0.0000000), wk =   0.0138889
        k(   13) = (   0.0208333  -0.5412659   0.0000000), wk =   0.0138889
        k(   14) = (   0.0208333  -0.4931534   0.0000000), wk =   0.0138889
        k(   15) = (   0.0208333  -0.4450408   0.0000000), wk =   0.0138889
        k(   16) = (   0.0208333  -0.3969283   0.0000000), wk =   0.0138889
        k(   17) = (   0.0208333  -0.3488158   0.0000000), wk =   0.0138889
        k(   18) = (   0.0208333  -0.3007033   0.0000000), wk =   0.0138889
        k(   19) = (   0.0208333  -0.2525907   0.0000000), wk =   0.0138889
        k(   20) = (   0.0208333  -0.2044782   0.0000000), wk =   0.0138889
        k(   21) = (   0.0208333  -0.1563657   0.0000000), wk =   0.0138889
        k(   22) = (   0.0208333  -0.1082532   0.0000000), wk =   0.0138889
        k(   23) = (   0.0208333  -0.0601407   0.0000000), wk =   0.0138889
        k(   24) = (   0.0208333  -0.0120281   0.0000000), wk =   0.0069444
        k(   25) = (   0.0625000   0.1082532   0.0000000), wk =   0.0069444
        k(   26) = (   0.0625000   0.1563657   0.0000000), wk =   0.0138889
        k(   27) = (   0.0625000   0.2044782   0.0000000), wk =   0.0138889
        k(   28) = (   0.0625000   0.2525907   0.0000000), wk =   0.0138889
        k(   29) = (   0.0625000   0.3007033   0.0000000), wk =   0.0138889
        k(   30) = (   0.0625000   0.3488158   0.0000000), wk =   0.0138889
        k(   31) = (   0.0625000   0.3969283   0.0000000), wk =   0.0138889
        k(   32) = (   0.0625000   0.4450408   0.0000000), wk =   0.0138889
        k(   33) = (   0.0625000   0.4931534   0.0000000), wk =   0.0138889
        k(   34) = (   0.0625000   0.5412659   0.0000000), wk =   0.0138889
        k(   35) = (   0.0625000   0.5893784   0.0000000), wk =   0.0138889
        k(   36) = (   0.0625000  -0.5172096   0.0000000), wk =   0.0138889
        k(   37) = (   0.0625000  -0.4690971   0.0000000), wk =   0.0138889
        k(   38) = (   0.0625000  -0.4209846   0.0000000), wk =   0.0138889
        k(   39) = (   0.0625000  -0.3728720   0.0000000), wk =   0.0138889
        k(   40) = (   0.0625000  -0.3247595   0.0000000), wk =   0.0138889
        k(   41) = (   0.0625000  -0.2766470   0.0000000), wk =   0.0138889
        k(   42) = (   0.0625000  -0.2285345   0.0000000), wk =   0.0138889
        k(   43) = (   0.0625000  -0.1804220   0.0000000), wk =   0.0138889
        k(   44) = (   0.0625000  -0.1323094   0.0000000), wk =   0.0138889
        k(   45) = (   0.0625000  -0.0841969   0.0000000), wk =   0.0138889
        k(   46) = (   0.0625000  -0.0360844   0.0000000), wk =   0.0069444
        k(   47) = (   0.1041667   0.1804220   0.0000000), wk =   0.0069444
        k(   48) = (   0.1041667   0.2285345   0.0000000), wk =   0.0138889
        k(   49) = (   0.1041667   0.2766470   0.0000000), wk =   0.0138889
        k(   50) = (   0.1041667   0.3247595   0.0000000), wk =   0.0138889
        k(   51) = (   0.1041667   0.3728720   0.0000000), wk =   0.0138889
        k(   52) = (   0.1041667   0.4209846   0.0000000), wk =   0.0138889
        k(   53) = (   0.1041667   0.4690971   0.0000000), wk =   0.0138889
        k(   54) = (   0.1041667   0.5172096   0.0000000), wk =   0.0138889
        k(   55) = (   0.1041667   0.5653221   0.0000000), wk =   0.0138889
        k(   56) = (   0.1041667   0.6134347   0.0000000), wk =   0.0138889
        k(   57) = (   0.1041667  -0.4931534   0.0000000), wk =   0.0138889
        k(   58) = (   0.1041667  -0.4450408   0.0000000), wk =   0.0138889
        k(   59) = (   0.1041667  -0.3969283   0.0000000), wk =   0.0138889
        k(   60) = (   0.1041667  -0.3488158   0.0000000), wk =   0.0138889
[...]
        k(  142) = (   0.3541667  -0.3007033   0.0000000), wk =   0.0138889
        k(  143) = (   0.3541667  -0.2525907   0.0000000), wk =   0.0138889
        k(  144) = (   0.3541667  -0.2044782   0.0000000), wk =   0.0069444
        k(  145) = (   0.3958333   0.6856034   0.0000000), wk =   0.0069444
        k(  146) = (   0.3958333   0.7337160   0.0000000), wk =   0.0138889
        k(  147) = (   0.3958333   0.7818285   0.0000000), wk =   0.0138889
        k(  148) = (   0.3958333  -0.3247595   0.0000000), wk =   0.0138889
        k(  149) = (   0.3958333  -0.2766470   0.0000000), wk =   0.0138889
        k(  150) = (   0.3958333  -0.2285345   0.0000000), wk =   0.0069444
        k(  151) = (   0.4375000   0.7577722   0.0000000), wk =   0.0069444
        k(  152) = (   0.4375000   0.8058848   0.0000000), wk =   0.0138889
        k(  153) = (   0.4375000  -0.3007033   0.0000000), wk =   0.0138889
        k(  154) = (   0.4375000  -0.2525907   0.0000000), wk =   0.0069444
        k(  155) = (   0.4791667   0.8299410   0.0000000), wk =   0.0069444
        k(  156) = (   0.4791667  -0.2766470   0.0000000), wk =   0.0069444

                       cryst. coord.
        k(    1) = (   0.0208333   0.0208333   0.0000000), wk =   0.0069444
        k(    2) = (   0.0208333   0.0625000   0.0000000), wk =   0.0138889
        k(    3) = (   0.0208333   0.1041667   0.0000000), wk =   0.0138889
        k(    4) = (   0.0208333   0.1458333   0.0000000), wk =   0.0138889
        k(    5) = (   0.0208333   0.1875000   0.0000000), wk =   0.0138889
        k(    6) = (   0.0208333   0.2291667   0.0000000), wk =   0.0138889
        k(    7) = (   0.0208333   0.2708333   0.0000000), wk =   0.0138889
        k(    8) = (   0.0208333   0.3125000   0.0000000), wk =   0.0138889
        k(    9) = (   0.0208333   0.3541667   0.0000000), wk =   0.0138889
        k(   10) = (   0.0208333   0.3958333   0.0000000), wk =   0.0138889
        k(   11) = (   0.0208333   0.4375000   0.0000000), wk =   0.0138889
        k(   12) = (   0.0208333   0.4791667   0.0000000), wk =   0.0138889
        k(   13) = (   0.0208333  -0.4791667   0.0000000), wk =   0.0138889
        k(   14) = (   0.0208333  -0.4375000   0.0000000), wk =   0.0138889
        k(   15) = (   0.0208333  -0.3958333   0.0000000), wk =   0.0138889
        k(   16) = (   0.0208333  -0.3541667   0.0000000), wk =   0.0138889
        k(   17) = (   0.0208333  -0.3125000   0.0000000), wk =   0.0138889
        k(   18) = (   0.0208333  -0.2708333   0.0000000), wk =   0.0138889
        k(   19) = (   0.0208333  -0.2291667   0.0000000), wk =   0.0138889
        k(   20) = (   0.0208333  -0.1875000   0.0000000), wk =   0.0138889
        k(   21) = (   0.0208333  -0.1458333   0.0000000), wk =   0.0138889
        k(   22) = (   0.0208333  -0.1041667   0.0000000), wk =   0.0138889
        k(   23) = (   0.0208333  -0.0625000   0.0000000), wk =   0.0138889
        k(   24) = (   0.0208333  -0.0208333   0.0000000), wk =   0.0069444
        k(   25) = (   0.0625000   0.0625000   0.0000000), wk =   0.0069444
        k(   26) = (   0.0625000   0.1041667   0.0000000), wk =   0.0138889
        k(   27) = (   0.0625000   0.1458333   0.0000000), wk =   0.0138889
        k(   28) = (   0.0625000   0.1875000   0.0000000), wk =   0.0138889
        k(   29) = (   0.0625000   0.2291667   0.0000000), wk =   0.0138889
        k(   30) = (   0.0625000   0.2708333   0.0000000), wk =   0.0138889
        k(   31) = (   0.0625000   0.3125000   0.0000000), wk =   0.0138889
        k(   32) = (   0.0625000   0.3541667   0.0000000), wk =   0.0138889
        k(   33) = (   0.0625000   0.3958333   0.0000000), wk =   0.0138889
        k(   34) = (   0.0625000   0.4375000   0.0000000), wk =   0.0138889
        k(   35) = (   0.0625000   0.4791667   0.0000000), wk =   0.0138889
        k(   36) = (   0.0625000  -0.4791667   0.0000000), wk =   0.0138889
        k(   37) = (   0.0625000  -0.4375000   0.0000000), wk =   0.0138889
        k(   38) = (   0.0625000  -0.3958333   0.0000000), wk =   0.0138889
        k(   39) = (   0.0625000  -0.3541667   0.0000000), wk =   0.0138889
        k(   40) = (   0.0625000  -0.3125000   0.0000000), wk =   0.0138889
        k(   41) = (   0.0625000  -0.2708333   0.0000000), wk =   0.0138889
        k(   42) = (   0.0625000  -0.2291667   0.0000000), wk =   0.0138889
        k(   43) = (   0.0625000  -0.1875000   0.0000000), wk =   0.0138889
        k(   44) = (   0.0625000  -0.1458333   0.0000000), wk =   0.0138889
        k(   45) = (   0.0625000  -0.1041667   0.0000000), wk =   0.0138889
        k(   46) = (   0.0625000  -0.0625000   0.0000000), wk =   0.0069444
        k(   47) = (   0.1041667   0.1041667   0.0000000), wk =   0.0069444
        k(   48) = (   0.1041667   0.1458333   0.0000000), wk =   0.0138889
        k(   49) = (   0.1041667   0.1875000   0.0000000), wk =   0.0138889
        k(   50) = (   0.1041667   0.2291667   0.0000000), wk =   0.0138889
        k(   51) = (   0.1041667   0.2708333   0.0000000), wk =   0.0138889
        k(   52) = (   0.1041667   0.3125000   0.0000000), wk =   0.0138889
        k(   53) = (   0.1041667   0.3541667   0.0000000), wk =   0.0138889
        k(   54) = (   0.1041667   0.3958333   0.0000000), wk =   0.0138889
        k(   55) = (   0.1041667   0.4375000   0.0000000), wk =   0.0138889
        k(   56) = (   0.1041667   0.4791667   0.0000000), wk =   0.0138889
        k(   57) = (   0.1041667  -0.4791667   0.0000000), wk =   0.0138889
        k(   58) = (   0.1041667  -0.4375000   0.0000000), wk =   0.0138889
        k(   59) = (   0.1041667  -0.3958333   0.0000000), wk =   0.0138889
        k(   60) = (   0.1041667  -0.3541667   0.0000000), wk =   0.0138889
[...]
        k(  142) = (   0.3541667  -0.4375000   0.0000000), wk =   0.0138889
        k(  143) = (   0.3541667  -0.3958333   0.0000000), wk =   0.0138889
        k(  144) = (   0.3541667  -0.3541667   0.0000000), wk =   0.0069444
        k(  145) = (   0.3958333   0.3958333   0.0000000), wk =   0.0069444
        k(  146) = (   0.3958333   0.4375000   0.0000000), wk =   0.0138889
        k(  147) = (   0.3958333   0.4791667   0.0000000), wk =   0.0138889
        k(  148) = (   0.3958333  -0.4791667   0.0000000), wk =   0.0138889
        k(  149) = (   0.3958333  -0.4375000   0.0000000), wk =   0.0138889
        k(  150) = (   0.3958333  -0.3958333   0.0000000), wk =   0.0069444
        k(  151) = (   0.4375000   0.4375000   0.0000000), wk =   0.0069444
        k(  152) = (   0.4375000   0.4791667   0.0000000), wk =   0.0138889
        k(  153) = (   0.4375000  -0.4791667   0.0000000), wk =   0.0138889
        k(  154) = (   0.4375000  -0.4375000   0.0000000), wk =   0.0069444
        k(  155) = (   0.4791667   0.4791667   0.0000000), wk =   0.0069444
        k(  156) = (   0.4791667  -0.4791667   0.0000000), wk =   0.0069444

     Initial potential from superposition of free atoms

     starting charge       7.9998, renormalised to       8.0000

     negative rho (up, down):  1.260E-05 0.000E+00
     Starting wfcs are    8 randomized atomic wfcs

     Self-consistent Calculation

     iteration #  1     ecut=    70.00 Ry     beta= 0.70
     Davidson diagonalization with overlap

     ethr =  1.00E-02,  avg # of iterations =  2.0

     total energy              =     -25.65039434 Ry
     estimated scf accuracy    <       0.43413869 Ry

[...]

     total energy              =     -25.80870684 Ry
     estimated scf accuracy    <          1.2E-10 Ry

     iteration # 13     ecut=    70.00 Ry     beta= 0.70
     Davidson diagonalization with overlap

     ethr =  1.50E-12,  avg # of iterations =  2.0

     End of self-consistent calculation

          k = 0.0208 0.0361 0.0000 (  7263 PWs)   bands (ev):

   -21.7739  -9.6398  -5.8610  -5.8065

     occupation numbers
     1.0000   1.0000   1.0000   1.0000

[...]

          k = 0.4792-0.2766 0.0000 (  7268 PWs)   bands (ev):

   -18.7190 -13.2044  -8.5721  -5.3259

     occupation numbers
     1.0000   1.0000   1.0000   1.0000

     highest occupied level (ev):    -4.3850

!    total energy              =     -25.80870684 Ry
     estimated scf accuracy    <          5.2E-11 Ry

     The total energy is the sum of the following terms:
     one-electron contribution =    -220.99710867 Ry
     hartree contribution      =     111.89113481 Ry
     xc contribution           =      -7.27957595 Ry
     ewald contribution        =      90.57684297 Ry

     convergence has been achieved in  13 iterations

     Forces acting on atoms (cartesian axes, Ry/au):

     atom    1 type  2   force =     0.00000000    0.00000000    0.00000000
     atom    2 type  1   force =     0.00000000    0.00000000    0.00000000
     The non-local contrib.  to forces
     atom    1 type  2   force =     0.00000000    0.00000000    0.00000000
     atom    2 type  1   force =     0.00000000   -0.00000000    0.00000000
     The ionic contribution  to forces
     atom    1 type  2   force =     0.00000002   -0.00000001    0.00000000
     atom    2 type  1   force =    -0.00000002    0.00000001   -0.00000000
     The local contribution  to forces
     atom    1 type  2   force =     0.00000003   -0.00000002    0.00000000
     atom    2 type  1   force =     0.00000000   -0.00000000    0.00000000
     The core correction contribution to forces
     atom    1 type  2   force =     0.00000000    0.00000000    0.00000000
     atom    2 type  1   force =     0.00000000    0.00000000    0.00000000
     The Hubbard contrib.    to forces
     atom    1 type  2   force =     0.00000000    0.00000000    0.00000000
     atom    2 type  1   force =     0.00000000    0.00000000    0.00000000
     The SCF correction term to forces
     atom    1 type  2   force =     0.00000000   -0.00000000   -0.00000000
     atom    2 type  1   force =     0.00000000   -0.00000000   -0.00000000

     Total force =     0.000000     Total SCF correction =     0.000000

     Computing stress (Cartesian axis) and pressure

          total   stress  (Ry/bohr**3)                   (kbar)     P=      -12.16
  -0.00011897   0.00000000   0.00000000          -17.50        0.00        0.00
   0.00000000  -0.00011897  -0.00000000            0.00      -17.50       -0.00
   0.00000000  -0.00000000  -0.00000995            0.00       -0.00       -1.46

     kinetic stress (kbar)   2419.37      0.00      0.00
                                0.00   2419.37      0.00
                                0.00      0.00   2641.07

     local   stress (kbar) -45887.16     -0.00     -0.00
                               -0.00 -45887.16     -0.00
                               -0.00     -0.00  45987.69

     nonloc. stress (kbar)   -346.15      0.00      0.00
                                0.00   -346.15     -0.00
                                0.00     -0.00   -326.20

     hartree stress (kbar)  22046.15     -0.00     -0.00
                               -0.00  22046.15      0.00
                               -0.00      0.00 -21632.93

     exc-cor stress (kbar)   -450.52      0.00      0.00
                                0.00   -450.52      0.00
                                0.00      0.00   -450.52

     corecor stress (kbar)      0.00      0.00      0.00
                                0.00      0.00      0.00
                                0.00      0.00      0.00

     ewald   stress (kbar)  22200.81      0.00      0.00
                                0.00  22200.81      0.00
                                0.00      0.00 -26220.57

     hubbard stress (kbar)      0.00      0.00      0.00
                                0.00      0.00      0.00
                                0.00      0.00      0.00

     DFT-D   stress (kbar)      0.00      0.00      0.00
                                0.00      0.00      0.00
                                0.00      0.00      0.00

     XDM     stress (kbar)      0.00      0.00      0.00
                                0.00      0.00      0.00
                                0.00      0.00      0.00

     dft-nl  stress (kbar)      0.00      0.00      0.00
                                0.00      0.00      0.00
                                0.00      0.00      0.00

     TS-vdW  stress (kbar)      0.00      0.00      0.00
                                0.00      0.00      0.00
                                0.00      0.00      0.00

     MDB     stress (kbar)      0.00      0.00      0.00
                                0.00      0.00      0.00
                                0.00      0.00      0.00

     3D-RISM stress (kbar)      0.00      0.00      0.00
                                0.00      0.00      0.00
                                0.00      0.00      0.00

     Writing all to output data dir ./bn.save/

     General routines

     Parallel routines

   This run was terminated on:  14:16:42  23Jan2025

   JOB DONE.
Note: The following floating-point exceptions are signalling: IEEE_DENORMAL
Note: The following floating-point exceptions are signalling: IEEE_DENORMAL
Note: The following floating-point exceptions are signalling: IEEE_DENORMAL
Note: The following floating-point exceptions are signalling: IEEE_DENORMAL
Note: The following floating-point exceptions are signalling: IEEE_DENORMAL
Note: The following floating-point exceptions are signalling: IEEE_DENORMAL
Note: The following floating-point exceptions are signalling: IEEE_DENORMAL
Note: The following floating-point exceptions are signalling: IEEE_INVALID_FLAG IEEE_DENORMAL
Note: The following floating-point exceptions are signalling: IEEE_DENORMAL
Note: The following floating-point exceptions are signalling: IEEE_DENORMAL
Note: The following floating-point exceptions are signalling: IEEE_DENORMAL
Note: The following floating-point exceptions are signalling: IEEE_DENORMAL
Note: The following floating-point exceptions are signalling: IEEE_DENORMAL
Note: The following floating-point exceptions are signalling: IEEE_DENORMAL
Note: The following floating-point exceptions are signalling: IEEE_DENORMAL
Note: The following floating-point exceptions are signalling: IEEE_DENORMAL
Note: The following floating-point exceptions are signalling: IEEE_DENORMAL
Note: The following floating-point exceptions are signalling: IEEE_DENORMAL
Note: The following floating-point exceptions are signalling: IEEE_INVALID_FLAG IEEE_DENORMAL
Note: The following floating-point exceptions are signalling: IEEE_DENORMAL